words_hard_train/5463.qaiger
aag 100 13 0 1 87
2
4
8
12
16
20
28
30
34
38
42
46
50
201
6 3 5
10 6 9
14 10 13
18 15 17
22 19 20
24 18 21
26 23 25
32 28 30
36 32 34
40 36 38
44 40 42
48 44 46
52 48 50
54 27 52
56 26 53
58 55 57
60 49 51
62 61 53
64 63 19
66 41 43
68 67 45
70 14 16
72 71 19
74 69 72
76 65 75
78 45 47
80 79 49
82 80 18
84 69 83
86 85 73
88 29 2
90 29 31
92 91 33
94 2 4
96 95 7
98 93 97
100 92 96
102 99 101
104 88 102
106 105 101
108 33 35
110 109 37
112 7 8
114 113 11
116 111 115
118 110 114
120 117 119
122 107 120
124 123 119
126 37 39
128 127 41
130 11 12
132 131 15
134 129 133
136 128 132
138 135 137
140 125 138
142 141 137
144 87 142
146 76 145
148 81 19
150 146 149
152 62 18
154 151 153
156 59 154
158 58 155
160 157 159
162 124 139
164 163 141
166 147 149
168 165 167
170 62 81
172 171 153
174 168 172
176 106 121
178 177 123
180 89 103
182 181 105
184 179 183
186 74 142
188 83 142
190 86 189
192 191 149
194 187 193
196 184 195
198 174 196
200 161 199
i0 2 y2[3]
i1 2 y2[4]
i2 2 y2[5]
i3 2 y2[6]
i4 2 y2[7]
i5 1 x2[7]
i6 1 x2[0]
i7 1 x2[1]
i8 1 x2[2]
i9 1 x2[3]
i10 1 x2[4]
i11 1 x2[5]
i12 1 x2[6]
o0 bv[0]
c
simplified
  >=
    1
    subtract
      add
        1
        1 x2
      >> 3
        2 y2
