words_hard_train/5463.qaiger.qdimacs
p cnf 100 262
a 10 14 15 17 19 21 23 25 0
e 1 2 3 4 5 6 7 8 9 11 12 13 16 18 20 22 24 26 27 28 29 30 31 32 33 34 35 36 37 38 39 40 41 42 43 44 45 46 47 48 49 50 51 52 53 54 55 56 57 58 59 60 61 62 63 64 65 66 67 68 69 70 71 72 73 74 75 76 77 78 79 80 81 82 83 84 85 86 87 88 89 90 91 92 93 94 95 96 97 98 99 100 0
1 2 3 0
-1 -3 0
-2 -3 0
-3 4 5 0
3 -5 0
-4 -5 0
-5 6 7 0
5 -7 0
-6 -7 0
7 8 9 0
-7 -9 0
-8 -9 0
9 -10 11 0
-9 -11 0
10 -11 0
-9 10 12 0
9 -12 0
-10 -12 0
11 12 13 0
-11 -13 0
-12 -13 0
-14 -15 16 0
14 -16 0
15 -16 0
-16 -17 18 0
16 -18 0
17 -18 0
-18 -19 20 0
18 -20 0
19 -20 0
-20 -21 22 0
20 -22 0
21 -22 0
-22 -23 24 0
22 -24 0
23 -24 0
-24 -25 26 0
24 -26 0
25 -26 0
13 -26 27 0
-13 -27 0
26 -27 0
-13 26 28 0
13 -28 0
-26 -28 0
27 28 29 0
-27 -29 0
-28 -29 0
24 25 30 0
-24 -30 0
-25 -30 0
30 26 31 0
-30 -31 0
-26 -31 0
31 9 32 0
-31 -32 0
-9 -32 0
20 21 33 0
-20 -33 0
-21 -33 0
33 22 34 0
-33 -34 0
-22 -34 0
-7 -8 35 0
7 -35 0
8 -35 0
35 9 36 0
-35 -36 0
-9 -36 0
34 -36 37 0
-34 -37 0
36 -37 0
32 37 38 0
-32 -38 0
-37 -38 0
22 23 39 0
-22 -39 0
-23 -39 0
39 24 40 0
-39 -40 0
-24 -40 0
-40 -9 41 0
40 -41 0
9 -41 0
34 41 42 0
-34 -42 0
-41 -42 0
42 36 43 0
-42 -43 0
-36 -43 0
14 -1 44 0
-14 -44 0
1 -44 0
14 15 45 0
-14 -45 0
-15 -45 0
45 16 46 0
-45 -46 0
-16 -46 0
-1 -2 47 0
1 -47 0
2 -47 0
47 3 48 0
-47 -48 0
-3 -48 0
46 48 49 0
-46 -49 0
-48 -49 0
-46 -48 50 0
46 -50 0
48 -50 0
49 50 51 0
-49 -51 0
-50 -51 0
-44 -51 52 0
44 -52 0
51 -52 0
52 50 53 0
-52 -53 0
-50 -53 0
16 17 54 0
-16 -54 0
-17 -54 0
54 18 55 0
-54 -55 0
-18 -55 0
3 -4 56 0
-3 -56 0
4 -56 0
56 5 57 0
-56 -57 0
-5 -57 0
55 57 58 0
-55 -58 0
-57 -58 0
-55 -57 59 0
55 -59 0
57 -59 0
58 59 60 0
-58 -60 0
-59 -60 0
53 -60 61 0
-53 -61 0
60 -61 0
61 59 62 0
-61 -62 0
-59 -62 0
18 19 63 0
-18 -63 0
-19 -63 0
63 20 64 0
-63 -64 0
-20 -64 0
5 -6 65 0
-5 -65 0
6 -65 0
65 7 66 0
-65 -66 0
-7 -66 0
64 66 67 0
-64 -67 0
-66 -67 0
-64 -66 68 0
64 -68 0
66 -68 0
67 68 69 0
-67 -69 0
-68 -69 0
62 -69 70 0
-62 -70 0
69 -70 0
70 68 71 0
-70 -71 0
-68 -71 0
43 -71 72 0
-43 -72 0
71 -72 0
-38 72 73 0
38 -73 0
-72 -73 0
40 9 74 0
-40 -74 0
-9 -74 0
-73 74 75 0
73 -75 0
-74 -75 0
-31 -9 76 0
31 -76 0
9 -76 0
75 76 77 0
-75 -77 0
-76 -77 0
29 -77 78 0
-29 -78 0
77 -78 0
-29 77 79 0
29 -79 0
-77 -79 0
78 79 80 0
-78 -80 0
-79 -80 0
-62 69 81 0
62 -81 0
-69 -81 0
81 70 82 0
-81 -82 0
-70 -82 0
73 74 83 0
-73 -83 0
-74 -83 0
82 83 84 0
-82 -84 0
-83 -84 0
-31 40 85 0
31 -85 0
-40 -85 0
85 76 86 0
-85 -86 0
-76 -86 0
-84 -86 87 0
84 -87 0
86 -87 0
-53 60 88 0
53 -88 0
-60 -88 0
88 61 89 0
-88 -89 0
-61 -89 0
44 51 90 0
-44 -90 0
-51 -90 0
90 52 91 0
-90 -91 0
-52 -91 0
89 91 92 0
-89 -92 0
-91 -92 0
-37 -71 93 0
37 -93 0
71 -93 0
41 -71 94 0
-41 -94 0
71 -94 0
-43 94 95 0
43 -95 0
-94 -95 0
95 74 96 0
-95 -96 0
-74 -96 0
93 96 97 0
-93 -97 0
-96 -97 0
-92 97 98 0
92 -98 0
-97 -98 0
-87 -98 99 0
87 -99 0
98 -99 0
80 99 100 0
-80 -100 0
-99 -100 0
-100 0
